c This is QMaxSAT 2017 based on 14.07
c This is Glucose 3.0
c This is MiniSat 2.2.0
c WARNING: for repeatability, setting FPU to use double precision
c card = mrwto, comp = 0, pmodel = 0, narr = 16, mct = 76, verb = 0
cr firstCPXsol 0 0 0
c top = 189219
c |  Number of variables:    16562                                            |
c |  Number of clauses:      1320407                                          |
c |  Weight of hard clauses: 189219                                           |
c |  Number of soft clauses: 127200                                           |
c |  Number of unit soft clauses: 0                                           |
c |  Maximum Cardinality (by unit): 4163168      (0           )               |
c last restart ## conflicts  :  2 4125 
o 650 | cpuTime 0.183693 s
c Sum of weights = 260198
c A number of soft clauses remained = 7950
c MRWTO encoding for Pseudo-Boolean Constraints
c sizeMax=650
c No.0 Divisor=9	generated by pow1
c No.1 Divisor=9	generated by pow1
c No.2 Divisor=9	generated by pow1
c p0= 9	p1= 9	p2= 9	
c number of digits = 4
c linkingVar[0].size = 9, linkingVar[1].size = 9, linkingVar[2].size = 9, linkingVar[3].size = 1, 
c Pseudo-Boolean Constraints: 136508 variables and 1032258 clauses
c Sum of weights = 260198
c A number of soft clauses remained = 7950
c MRWTO encoding for Pseudo-Boolean Constraints
c sizeMax=650
c No.0 Divisor=9	generated by pow1
c No.1 Divisor=9	generated by pow1
c No.2 Divisor=9	generated by pow1
c p0= 9	p1= 9	p2= 9	
c number of digits = 4
c linkingVar[0].size = 9, linkingVar[1].size = 9, linkingVar[2].size = 9, linkingVar[3].size = 1, 
c Pseudo-Boolean Constraints: 136508 variables and 1032258 clauses
c Sum of weights = 260198
c A number of soft clauses remained = 7950
c MRWTO encoding for Pseudo-Boolean Constraints
c sizeMax=650
c No.0 Divisor=9	generated by pow1
c No.1 Divisor=9	generated by pow1
c No.2 Divisor=9	generated by pow1
c p0= 9	p1= 9	p2= 9	
c number of digits = 4
c linkingVar[0].size = 9, linkingVar[1].size = 9, linkingVar[2].size = 9, linkingVar[3].size = 1, 
c Pseudo-Boolean Constraints: 136508 variables and 1032258 clauses
c Sum of weights = 260198
c A number of soft clauses remained = 7950
c MRWTO encoding for Pseudo-Boolean Constraints
c sizeMax=650
c No.0 Divisor=9	generated by pow1
c No.1 Divisor=9	generated by pow1
c No.2 Divisor=9	generated by pow1
c p0= 9	p1= 9	p2= 9	
c number of digits = 4
c linkingVar[0].size = 9, linkingVar[1].size = 9, linkingVar[2].size = 9, linkingVar[3].size = 1, 
c Pseudo-Boolean Constraints: 136508 variables and 1032258 clauses
c Sum of weights = 260198
c A number of soft clauses remained = 7950
c MRWTO encoding for Pseudo-Boolean Constraints
c sizeMax=650
c No.0 Divisor=9	generated by pow1
c No.1 Divisor=9	generated by pow1
c No.2 Divisor=9	generated by pow1
c p0= 9	p1= 9	p2= 9	
c number of digits = 4
c linkingVar[0].size = 9, linkingVar[1].size = 9, linkingVar[2].size = 9, linkingVar[3].size = 1, 
c Pseudo-Boolean Constraints: 136508 variables and 1032258 clauses
c Sum of weights = 260198
c A number of soft clauses remained = 7950
c MRWTO encoding for Pseudo-Boolean Constraints
c sizeMax=650
c No.0 Divisor=9	generated by pow1
c No.1 Divisor=9	generated by pow1
c No.2 Divisor=9	generated by pow1
c p0= 9	p1= 9	p2= 9	
c number of digits = 4
c linkingVar[0].size = 9, linkingVar[1].size = 9, linkingVar[2].size = 9, linkingVar[3].size = 1, 
c Pseudo-Boolean Constraints: 136508 variables and 1032258 clauses
c Sum of weights = 260198
c A number of soft clauses remained = 7950
c MRWTO encoding for Pseudo-Boolean Constraints
c sizeMax=650
c No.0 Divisor=9	generated by pow1
c No.1 Divisor=9	generated by pow1
c No.2 Divisor=9	generated by pow1
c p0= 9	p1= 9	p2= 9	
c number of digits = 4
c linkingVar[0].size = 9, linkingVar[1].size = 9, linkingVar[2].size = 9, linkingVar[3].size = 1, 
c Pseudo-Boolean Constraints: 136508 variables and 1032258 clauses
c Sum of weights = 260198
c A number of soft clauses remained = 7950
c MRWTO encoding for Pseudo-Boolean Constraints
c sizeMax=650
c No.0 Divisor=9	generated by pow1
c No.1 Divisor=9	generated by pow1
c No.2 Divisor=9	generated by pow1
c p0= 9	p1= 9	p2= 9	
c number of digits = 4
c linkingVar[0].size = 9, linkingVar[1].size = 9, linkingVar[2].size = 9, linkingVar[3].size = 1, 
c Pseudo-Boolean Constraints: 136508 variables and 1032258 clauses
c Sum of weights = 260198
c A number of soft clauses remained = 7950
c MRWTO encoding for Pseudo-Boolean Constraints
c sizeMax=650
c No.0 Divisor=9	generated by pow1
c No.1 Divisor=9	generated by pow1
c No.2 Divisor=9	generated by pow1
c p0= 9	p1= 9	p2= 9	
c number of digits = 4
c linkingVar[0].size = 9, linkingVar[1].size = 9, linkingVar[2].size = 9, linkingVar[3].size = 1, 
c Pseudo-Boolean Constraints: 136508 variables and 1032258 clauses
c Sum of weights = 260198
c A number of soft clauses remained = 7950
c MRWTO encoding for Pseudo-Boolean Constraints
c sizeMax=650
c No.0 Divisor=9	generated by pow1
c No.1 Divisor=9	generated by pow1
c No.2 Divisor=9	generated by pow1
c p0= 9	p1= 9	p2= 9	
c number of digits = 4
c linkingVar[0].size = 9, linkingVar[1].size = 9, linkingVar[2].size = 9, linkingVar[3].size = 1, 
c Pseudo-Boolean Constraints: 136508 variables and 1032258 clauses
c Sum of weights = 260198
c A number of soft clauses remained = 7950
c MRWTO encoding for Pseudo-Boolean Constraints
c sizeMax=650
c No.0 Divisor=9	generated by pow1
c No.1 Divisor=9	generated by pow1
c No.2 Divisor=9	generated by pow1
c p0= 9	p1= 9	p2= 9	
c number of digits = 4
c linkingVar[0].size = 9, linkingVar[1].size = 9, linkingVar[2].size = 9, linkingVar[3].size = 1, 
c Pseudo-Boolean Constraints: 136508 variables and 1032258 clauses
c Sum of weights = 260198
c A number of soft clauses remained = 7950
c MRWTO encoding for Pseudo-Boolean Constraints
c sizeMax=650
c No.0 Divisor=9	generated by pow1
c No.1 Divisor=9	generated by pow1
c No.2 Divisor=9	generated by pow1
c p0= 9	p1= 9	p2= 9	
c number of digits = 4
c linkingVar[0].size = 9, linkingVar[1].size = 9, linkingVar[2].size = 9, linkingVar[3].size = 1, 
c Pseudo-Boolean Constraints: 136508 variables and 1032258 clauses
c Sum of weights = 260198
c A number of soft clauses remained = 7950
c MRWTO encoding for Pseudo-Boolean Constraints
c sizeMax=650
c No.0 Divisor=9	generated by pow1
c No.1 Divisor=9	generated by pow1
c No.2 Divisor=9	generated by pow1
c p0= 9	p1= 9	p2= 9	
c number of digits = 4
c linkingVar[0].size = 9, linkingVar[1].size = 9, linkingVar[2].size = 9, linkingVar[3].size = 1, 
c Pseudo-Boolean Constraints: 136508 variables and 1032258 clauses
c Sum of weights = 260198
c A number of soft clauses remained = 7950
c MRWTO encoding for Pseudo-Boolean Constraints
c sizeMax=650
c No.0 Divisor=9	generated by pow1
c No.1 Divisor=9	generated by pow1
c No.2 Divisor=9	generated by pow1
c p0= 9	p1= 9	p2= 9	
c number of digits = 4
c linkingVar[0].size = 9, linkingVar[1].size = 9, linkingVar[2].size = 9, linkingVar[3].size = 1, 
c Pseudo-Boolean Constraints: 136508 variables and 1032258 clauses
c Sum of weights = 260198
c A number of soft clauses remained = 7950
c MRWTO encoding for Pseudo-Boolean Constraints
c sizeMax=650
c No.0 Divisor=9	generated by pow1
c No.1 Divisor=9	generated by pow1
c No.2 Divisor=9	generated by pow1
c p0= 9	p1= 9	p2= 9	
c number of digits = 4
c linkingVar[0].size = 9, linkingVar[1].size = 9, linkingVar[2].size = 9, linkingVar[3].size = 1, 
c Pseudo-Boolean Constraints: 136508 variables and 1032258 clauses
c Sum of weights = 260198
c A number of soft clauses remained = 7950
c MRWTO encoding for Pseudo-Boolean Constraints
c sizeMax=650
c No.0 Divisor=9	generated by pow1
c No.1 Divisor=9	generated by pow1
c No.2 Divisor=9	generated by pow1
c p0= 9	p1= 9	p2= 9	
c number of digits = 4
c linkingVar[0].size = 9, linkingVar[1].size = 9, linkingVar[2].size = 9, linkingVar[3].size = 1, 
c Pseudo-Boolean Constraints: 136508 variables and 1032258 clauses
c last restart ## conflicts  :  797 30882 
o 542 | cpuTime 8.49347 s
c last restart ## conflicts  :  340 37185 
o 403 | cpuTime 20.3289 s
c last restart ## conflicts  :  356 58009 
o 396 | cpuTime 31.3588 s
c last restart ## conflicts  :  507 94483 
o 344 | cpuTime 67.5701 s
c last restart ## conflicts  :  607 19760 
o 287 | cpuTime 77.8476 s
c last restart ## conflicts  :  377 34368 
o 264 | cpuTime 203.711 s
c last restart ## conflicts  :  516 11726 
o 256 | cpuTime 220.012 s
c last restart ## conflicts  :  420 42527 
o 255 | cpuTime 763.982 s
c last restart ## conflicts  :  241 33508 
o 226 | cpuTime 1795.04 s
s UNKNOWN
c Search is stopped by a limit (maybe time-limit)
cr positiVarArr: [ | 41(1->26) | 124(1->18) | 247(1->50) | 291(1->3) | 452(1->73) | 492(1->22) | 570(1->9) | 693(1->41) | 799(1->56) | 842(1->8) | 939(1->14) | 1059(1->43) | 1151(1->44) | 1210(1->12) | 1351(1->62) | 1444(1->64) | 1528(2->57) | 1563(3->1) | 1698(4->45) | 1750(5->6) | 1910(6->75) | 1987(7->61) | 2045(8->28) | 2139(9->31) | 2187(10->1) | 2355(11->65) | 2427(12->46) | 2535(13->63) | 2574(14->11) | 2686(15->32) | 2794(16->49) | 2833(17->1) | 2951(18->24) | 3084(19->66) | 3100(20->1) | 3229(21->29) | 3307(22->16) | 3399(23->17) | 3496(24->23) | 3563(25->1) | 3648(26->1) | 3746(27->1) | 3911(28->74) | 3958(29->30) | 4015(30->1) | 4105(31->1) | 4235(32->34) | 4290(33->1) | 4451(34->68) | 4541(35->67) | 4578(36->13) | 4703(37->47) | 4802(38->55) | 4876(39->38) | 5001(40->72) | 5062(41->42) | 5097(42->1) | 5189(43->1) | 5332(44->39) | 5435(45->51) | 5546(46->71) | 5571(47->5) | 5694(48->37) | 5800(49->52) | 5833(50->1) | 5965(51->35) | 6028(52->7) | 6171(53->59) | 6207(54->4) | 6319(55->25) | 6404(56->19) | 6530(57->54) | 6620(58->53) | 6647(59->1) | 6769(60->20) | 6830(61->1) | 6933(62->2) | 7014(63->1) | 7182(64->69) | 7214(65->10) | 7365(66->70) | 7413(67->27) | 7510(68->33) | 7589(69->21) | 7719(70->60) | 7786(71->36) | 7899(72->58) | 7980(73->48) | 8038(74->15) | 8190(75->76) | 8245(76->40) | ]
cr the 1-th chain: [ 1->26->1 ] (#non-depot=1) {#cumul.=2}
cr the 2-th chain: [ 1->18->24->23->17->1 ] (#non-depot=4) {#cumul.=6}
cr the 3-th chain: [ 1->50->1 ] (#non-depot=1) {#cumul.=7}
cr the 4-th chain: [ 1->3->1 ] (#non-depot=1) {#cumul.=8}
cr the 5-th chain: [ 1->73->48->37->47->5->6->75->76->40->72->58->53->59->1 ] (#non-depot=13) {#cumul.=21}
cr the 6-th chain: [ 1->22->16->49->52->7->61->1 ] (#non-depot=6) {#cumul.=27}
cr the 7-th chain: [ 1->9->31->1 ] (#non-depot=2) {#cumul.=29}
cr the 8-th chain: [ 1->41->42->1 ] (#non-depot=2) {#cumul.=31}
cr the 9-th chain: [ 1->56->19->66->70->60->20->1 ] (#non-depot=6) {#cumul.=37}
cr the 10-th chain: [ 1->8->28->74->15->32->34->68->33->1 ] (#non-depot=8) {#cumul.=45}
cr the 11-th chain: [ 1->14->11->65->10->1 ] (#non-depot=4) {#cumul.=49}
cr the 12-th chain: [ 1->43->1 ] (#non-depot=1) {#cumul.=50}
cr the 13-th chain: [ 1->44->39->38->55->25->1 ] (#non-depot=5) {#cumul.=55}
cr the 14-th chain: [ 1->12->46->71->36->13->63->1 ] (#non-depot=6) {#cumul.=61}
cr the 15-th chain: [ 1->62->2->57->54->4->45->51->35->67->27->1 ] (#non-depot=10) {#cumul.=71}
cr the 16-th chain: [ 1->64->69->21->29->30->1 ] (#non-depot=5) {#cumul.=76}
c Latest Answer = 0 by 10 loops
c restarts              : 27560
c conflicts             : 4234380        (1178 /sec)
c decisions             : 149954595      (0.00 % random) (41700 /sec)
c propagations          : 37730993915    (10492491 /sec)
c conflict literals     : 601428872      (34.26 % deleted)
c Memory used           : 2329.00 MB
c CPU time              : 3596 s
